20J6M/DAT/20J6MNNL-17.dat
20 6
21.8742 21.8742
28.0256 28.0256
22.7411 22.7411
23.7287 23.7287
23.8188 23.8188
26.6432 26.6432
29.4227 29.4227
29.3769 29.3769
23.873 23.873
28.1311 28.1311
20.4576 20.4576
25.9266 25.9266
27.297 27.297
22.3956 22.3956
24.5046 24.5046
25.9079 25.9079
25.0111 25.0111
26.6086 26.6086
26.3566 26.3566
28.0223 28.0223
510.1232