20J6M/SOL/20J6MNNL-17.sol
solution status: optimal solution found
objective value:                     85.0205333333333
x#1#1                                               1 	(obj:0)
x#2#5                                               1 	(obj:0)
x#3#4                                               1 	(obj:0)
x#4#4                                               1 	(obj:0)
x#5#2                                               1 	(obj:0)
x#6#1                               0.472022880134519 	(obj:0)
x#6#2                               0.527977119865481 	(obj:0)
x#7#6                                               1 	(obj:0)
x#8#6                                               1 	(obj:0)
x#9#4                                               1 	(obj:0)
x#10#5                              0.067902309780516 	(obj:0)
x#10#6                              0.932097690219484 	(obj:0)
x#11#1                                              1 	(obj:0)
x#12#3                                              1 	(obj:0)
x#13#2                            0.00859190875676301 	(obj:0)
x#13#5                              0.991408091243237 	(obj:0)
x#14#2                                              1 	(obj:0)
x#15#2                                              1 	(obj:0)
x#16#3                                              1 	(obj:0)
x#17#3                                              1 	(obj:0)
x#18#1                                              1 	(obj:0)
x#19#1                              0.132943298199819 	(obj:0)
x#19#3                              0.310166460519693 	(obj:0)
x#19#4                              0.556890241280488 	(obj:0)
x#20#5                                              1 	(obj:0)
z                                    85.0205333333333 	(obj:1)
